100 4950
1 2 3
1 3 1
1 4 3
1 5 5
1 6 3
1 7 5
1 8 3
1 9 5
1 10 5
1 11 4
1 12 2
1 13 5
1 14 1
1 15 5
1 16 5
1 17 5
1 18 2
1 19 4
1 20 1
1 21 5
1 22 5
1 23 2
1 24 1
1 25 1
1 26 2
1 27 4
1 28 4
1 29 4
1 30 2
1 31 4
1 32 5
1 33 1
1 34 3
1 35 1
1 36 5
1 37 5
1 38 4
1 39 2
1 40 3
1 41 4
1 42 2
1 43 5
1 44 4
1 45 1
1 46 1
1 47 4
1 48 4
1 49 4
1 50 5
1 51 1
1 52 2
1 53 4
1 54 2
1 55 1
1 56 1
1 57 3
1 58 2
1 59 3
1 60 2
1 61 4
1 62 5
1 63 2
1 64 2
1 65 1
1 66 4
1 67 5
1 68 3
1 69 3
1 70 3
1 71 4
1 72 3
1 73 1
1 74 4
1 75 2
1 76 5
1 77 1
1 78 2
1 79 5
1 80 3
1 81 4
1 82 1
1 83 5
1 84 5
1 85 1
1 86 4
1 87 2
1 88 4
1 89 4
1 90 5
1 91 4
1 92 2
1 93 2
1 94 1
1 95 4
1 96 5
1 97 2
1 98 2
1 99 5
1 100 5
2 3 5
2 4 5
2 5 2
2 6 2
2 7 2
2 8 4
2 9 5
2 10 5
2 11 3
2 12 4
2 13 1
2 14 1
2 15 4
2 16 3
2 17 2
2 18 5
2 19 1
2 20 1
2 21 5
2 22 4
2 23 1
2 24 4
2 25 1
2 26 1
2 27 5
2 28 4
2 29 4
2 30 3
2 31 2
2 32 4
2 33 3
2 34 5
2 35 2
2 36 4
2 37 4
2 38 2
2 39 5
2 40 2
2 41 1
2 42 1
2 43 3
2 44 3
2 45 4
2 46 4
2 47 3
2 48 5
2 49 5
2 50 2
2 51 1
2 52 2
2 53 4
2 54 3
2 55 5
2 56 2
2 57 4
2 58 4
2 59 1
2 60 4
2 61 2
2 62 4
2 63 2
2 64 3
2 65 4
2 66 5
2 67 5
2 68 5
2 69 3
2 70 3
2 71 5
2 72 1
2 73 2
2 74 5
2 75 5
2 76 1
2 77 1
2 78 3
2 79 4
2 80 5
2 81 1
2 82 5
2 83 4
2 84 4
2 85 2
2 86 2
2 87 4
2 88 1
2 89 5
2 90 5
2 91 3
2 92 3
2 93 2
2 94 4
2 95 2
2 96 5
2 97 1
2 98 5
2 99 3
2 100 2
3 4 2
3 5 1
3 6 4
3 7 1
3 8 5
3 9 1
3 10 2
3 11 4
3 12 3
3 13 5
3 14 2
3 15 1
3 16 2
3 17 3
3 18 2
3 19 3
3 20 4
3 21 5
3 22 4
3 23 2
3 24 5
3 25 1
3 26 5
3 27 3
3 28 2
3 29 1
3 30 2
3 31 1
3 32 3
3 33 2
3 34 3
3 35 5
3 36 1
3 37 2
3 38 5
3 39 4
3 40 3
3 41 4
3 42 5
3 43 2
3 44 4
3 45 1
3 46 5
3 47 3
3 48 2
3 49 1
3 50 2
3 51 3
3 52 5
3 53 4
3 54 1
3 55 3
3 56 1
3 57 5
3 58 2
3 59 5
3 60 4
3 61 1
3 62 3
3 63 1
3 64 4
3 65 4
3 66 3
3 67 1
3 68 2
3 69 3
3 70 1
3 71 1
3 72 4
3 73 5
3 74 1
3 75 5
3 76 5
3 77 1
3 78 1
3 79 4
3 80 4
3 81 2
3 82 1
3 83 4
3 84 5
3 85 5
3 86 4
3 87 4
3 88 3
3 89 1
3 90 2
3 91 1
3 92 5
3 93 4
3 94 2
3 95 1
3 96 2
3 97 2
3 98 2
3 99 1
3 100 2
4 5 2
4 6 2
4 7 4
4 8 5
4 9 5
4 10 1
4 11 1
4 12 2
4 13 5
4 14 3
4 15 3
4 16 2
4 17 4
4 18 1
4 19 5
4 20 2
4 21 5
4 22 3
4 23 4
4 24 5
4 25 5
4 26 4
4 27 2
4 28 4
4 29 4
4 30 1
4 31 1
4 32 1
4 33 5
4 34 2
4 35 2
4 36 5
4 37 3
4 38 2
4 39 3
4 40 3
4 41 5
4 42 1
4 43 3
4 44 1
4 45 5
4 46 3
4 47 1
4 48 2
4 49 1
4 50 5
4 51 1
4 52 1
4 53 5
4 54 4
4 55 1
4 56 4
4 57 2
4 58 5
4 59 2
4 60 2
4 61 3
4 62 2
4 63 1
4 64 2
4 65 1
4 66 1
4 67 1
4 68 4
4 69 5
4 70 4
4 71 2
4 72 4
4 73 4
4 74 5
4 75 2
4 76 3
4 77 1
4 78 1
4 79 5
4 80 3
4 81 1
4 82 1
4 83 4
4 84 1
4 85 3
4 86 2
4 87 4
4 88 4
4 89 5
4 90 4
4 91 1
4 92 3
4 93 3
4 94 2
4 95 2
4 96 4
4 97 3
4 98 3
4 99 3
4 100 4
5 6 2
5 7 2
5 8 4
5 9 5
5 10 5
5 11 5
5 12 5
5 13 5
5 14 5
5 15 1
5 16 4
5 17 2
5 18 1
5 19 5
5 20 3
5 21 5
5 22 4
5 23 5
5 24 3
5 25 4
5 26 5
5 27 1
5 28 4
5 29 1
5 30 2
5 31 3
5 32 4
5 33 3
5 34 3
5 35 5
5 36 4
5 37 4
5 38 4
5 39 3
5 40 5
5 41 2
5 42 3
5 43 5
5 44 4
5 45 2
5 46 5
5 47 2
5 48 1
5 49 4
5 50 2
5 51 5
5 52 2
5 53 3
5 54 5
5 55 2
5 56 5
5 57 2
5 58 5
5 59 3
5 60 2
5 61 2
5 62 5
5 63 4
5 64 3
5 65 4
5 66 2
5 67 3
5 68 4
5 69 1
5 70 1
5 71 3
5 72 5
5 73 3
5 74 1
5 75 4
5 76 2
5 77 4
5 78 5
5 79 3
5 80 4
5 81 5
5 82 2
5 83 1
5 84 5
5 85 1
5 86 1
5 87 2
5 88 4
5 89 2
5 90 3
5 91 2
5 92 5
5 93 2
5 94 2
5 95 4
5 96 5
5 97 4
5 98 3
5 99 5
5 100 2
6 7 3
6 8 3
6 9 2
6 10 5
6 11 3
6 12 2
6 13 2
6 14 1
6 15 1
6 16 5
6 17 4
6 18 1
6 19 3
6 20 4
6 21 1
6 22 1
6 23 1
6 24 2
6 25 5
6 26 1
6 27 2
6 28 2
6 29 5
6 30 3
6 31 2
6 32 5
6 33 1
6 34 5
6 35 1
6 36 2
6 37 3
6 38 1
6 39 1
6 40 1
6 41 2
6 42 2
6 43 4
6 44 1
6 45 5
6 46 1
6 47 2
6 48 5
6 49 3
6 50 5
6 51 2
6 52 3
6 53 4
6 54 5
6 55 1
6 56 2
6 57 3
6 58 1
6 59 3
6 60 5
6 61 5
6 62 5
6 63 4
6 64 4
6 65 3
6 66 5
6 67 3
6 68 3
6 69 4
6 70 5
6 71 3
6 72 1
6 73 5
6 74 2
6 75 5
6 76 5
6 77 4
6 78 2
6 79 4
6 80 3
6 81 1
6 82 2
6 83 2
6 84 4
6 85 1
6 86 1
6 87 4
6 88 5
6 89 3
6 90 5
6 91 1
6 92 1
6 93 1
6 94 4
6 95 1
6 96 2
6 97 2
6 98 2
6 99 5
6 100 1
7 8 3
7 9 1
7 10 5
7 11 4
7 12 4
7 13 4
7 14 1
7 15 4
7 16 3
7 17 5
7 18 4
7 19 5
7 20 1
7 21 3
7 22 1
7 23 3
7 24 4
7 25 1
7 26 3
7 27 3
7 28 1
7 29 1
7 30 4
7 31 1
7 32 3
7 33 2
7 34 2
7 35 5
7 36 5
7 37 5
7 38 4
7 39 4
7 40 1
7 41 2
7 42 5
7 43 5
7 44 1
7 45 5
7 46 5
7 47 5
7 48 4
7 49 4
7 50 3
7 51 1
7 52 5
7 53 3
7 54 2
7 55 1
7 56 5
7 57 1
7 58 3
7 59 1
7 60 1
7 61 3
7 62 1
7 63 4
7 64 4
7 65 4
7 66 2
7 67 3
7 68 2
7 69 4
7 70 3
7 71 2
7 72 5
7 73 2
7 74 1
7 75 3
7 76 2
7 77 5
7 78 2
7 79 5
7 80 3
7 81 1
7 82 2
7 83 5
7 84 1
7 85 4
7 86 5
7 87 3
7 88 3
7 89 1
7 90 1
7 91 3
7 92 4
7 93 4
7 94 4
7 95 2
7 96 2
7 97 2
7 98 3
7 99 3
7 100 2
8 9 1
8 10 2
8 11 5
8 12 3
8 13 4
8 14 2
8 15 2
8 16 2
8 17 3
8 18 5
8 19 2
8 20 4
8 21 3
8 22 2
8 23 3
8 24 2
8 25 1
8 26 5
8 27 4
8 28 4
8 29 1
8 30 1
8 31 2
8 32 3
8 33 4
8 34 3
8 35 1
8 36 2
8 37 4
8 38 5
8 39 4
8 40 1
8 41 1
8 42 5
8 43 1
8 44 1
8 45 5
8 46 4
8 47 4
8 48 5
8 49 2
8 50 5
8 51 2
8 52 5
8 53 1
8 54 1
8 55 2
8 56 3
8 57 3
8 58 4
8 59 1
8 60 1
8 61 3
8 62 1
8 63 3
8 64 3
8 65 1
8 66 4
8 67 5
8 68 4
8 69 2
8 70 1
8 71 4
8 72 1
8 73 4
8 74 5
8 75 5
8 76 3
8 77 1
8 78 3
8 79 4
8 80 3
8 81 3
8 82 3
8 83 5
8 84 3
8 85 3
8 86 3
8 87 5
8 88 4
8 89 3
8 90 1
8 91 5
8 92 5
8 93 3
8 94 5
8 95 2
8 96 2
8 97 5
8 98 1
8 99 5
8 100 2
9 10 3
9 11 2
9 12 1
9 13 5
9 14 3
9 15 3
9 16 2
9 17 5
9 18 5
9 19 1
9 20 5
9 21 1
9 22 5
9 23 5
9 24 4
9 25 4
9 26 2
9 27 1
9 28 4
9 29 3
9 30 1
9 31 2
9 32 1
9 33 2
9 34 1
9 35 1
9 36 3
9 37 2
9 38 2
9 39 5
9 40 3
9 41 2
9 42 3
9 43 1
9 44 3
9 45 3
9 46 5
9 47 1
9 48 4
9 49 5
9 50 3
9 51 1
9 52 5
9 53 3
9 54 3
9 55 4
9 56 4
9 57 3
9 58 3
9 59 3
9 60 1
9 61 2
9 62 1
9 63 4
9 64 2
9 65 4
9 66 3
9 67 3
9 68 5
9 69 2
9 70 4
9 71 3
9 72 5
9 73 1
9 74 4
9 75 4
9 76 5
9 77 1
9 78 2
9 79 3
9 80 4
9 81 4
9 82 4
9 83 5
9 84 4
9 85 3
9 86 1
9 87 5
9 88 3
9 89 5
9 90 4
9 91 4
9 92 3
9 93 3
9 94 3
9 95 2
9 96 3
9 97 4
9 98 1
9 99 4
9 100 4
10 11 3
10 12 4
10 13 4
10 14 2
10 15 4
10 16 5
10 17 5
10 18 1
10 19 1
10 20 3
10 21 2
10 22 5
10 23 5
10 24 1
10 25 1
10 26 5
10 27 5
10 28 5
10 29 4
10 30 5
10 31 2
10 32 3
10 33 4
10 34 4
10 35 1
10 36 4
10 37 3
10 38 3
10 39 1
10 40 3
10 41 1
10 42 5
10 43 1
10 44 1
10 45 2
10 46 4
10 47 4
10 48 2
10 49 1
10 50 5
10 51 2
10 52 5
10 53 3
10 54 2
10 55 3
10 56 1
10 57 4
10 58 5
10 59 4
10 60 3
10 61 1
10 62 4
10 63 3
10 64 1
10 65 3
10 66 2
10 67 3
10 68 1
10 69 2
10 70 5
10 71 3
10 72 4
10 73 3
10 74 2
10 75 1
10 76 1
10 77 4
10 78 1
10 79 2
10 80 5
10 81 4
10 82 5
10 83 1
10 84 5
10 85 4
10 86 3
10 87 1
10 88 2
10 89 2
10 90 3
10 91 5
10 92 5
10 93 3
10 94 2
10 95 5
10 96 1
10 97 2
10 98 4
10 99 2
10 100 2
11 12 3
11 13 5
11 14 3
11 15 4
11 16 5
11 17 2
11 18 5
11 19 4
11 20 4
11 21 2
11 22 3
11 23 4
11 24 1
11 25 3
11 26 2
11 27 2
11 28 2
11 29 5
11 30 4
11 31 2
11 32 4
11 33 5
11 34 2
11 35 5
11 36 4
11 37 5
11 38 2
11 39 4
11 40 5
11 41 1
11 42 2
11 43 4
11 44 3
11 45 5
11 46 2
11 47 3
11 48 4
11 49 3
11 50 2
11 51 5
11 52 2
11 53 3
11 54 5
11 55 4
11 56 2
11 57 3
11 58 1
11 59 1
11 60 5
11 61 3
11 62 4
11 63 1
11 64 3
11 65 5
11 66 5
11 67 3
11 68 4
11 69 4
11 70 5
11 71 5
11 72 4
11 73 4
11 74 2
11 75 4
11 76 5
11 77 2
11 78 3
11 79 3
11 80 1
11 81 2
11 82 2
11 83 2
11 84 2
11 85 4
11 86 1
11 87 3
11 88 3
11 89 1
11 90 5
11 91 1
11 92 1
11 93 2
11 94 2
11 95 1
11 96 5
11 97 3
11 98 3
11 99 3
11 100 1
12 13 5
12 14 2
12 15 1
12 16 1
12 17 3
12 18 4
12 19 5
12 20 3
12 21 4
12 22 1
12 23 3
12 24 1
12 25 2
12 26 2
12 27 3
12 28 1
12 29 1
12 30 1
12 31 3
12 32 5
12 33 2
12 34 2
12 35 2
12 36 1
12 37 3
12 38 5
12 39 1
12 40 4
12 41 3
12 42 1
12 43 4
12 44 4
12 45 4
12 46 4
12 47 5
12 48 5
12 49 3
12 50 3
12 51 2
12 52 1
12 53 5
12 54 5
12 55 4
12 56 1
12 57 5
12 58 4
12 59 1
12 60 2
12 61 4
12 62 1
12 63 4
12 64 5
12 65 2
12 66 1
12 67 4
12 68 5
12 69 2
12 70 4
12 71 2
12 72 1
12 73 4
12 74 2
12 75 1
12 76 5
12 77 5
12 78 1
12 79 3
12 80 4
12 81 2
12 82 3
12 83 3
12 84 5
12 85 5
12 86 4
12 87 2
12 88 3
12 89 2
12 90 1
12 91 3
12 92 2
12 93 1
12 94 5
12 95 1
12 96 5
12 97 3
12 98 3
12 99 4
12 100 3
13 14 5
13 15 2
13 16 4
13 17 4
13 18 3
13 19 3
13 20 4
13 21 1
13 22 2
13 23 2
13 24 1
13 25 3
13 26 4
13 27 1
13 28 1
13 29 1
13 30 1
13 31 4
13 32 4
13 33 5
13 34 3
13 35 1
13 36 3
13 37 5
13 38 1
13 39 5
13 40 5
13 41 3
13 42 2
13 43 5
13 44 5
13 45 1
13 46 4
13 47 3
13 48 2
13 49 4
13 50 5
13 51 1
13 52 2
13 53 2
13 54 3
13 55 2
13 56 4
13 57 4
13 58 3
13 59 4
13 60 4
13 61 1
13 62 4
13 63 1
13 64 4
13 65 2
13 66 4
13 67 4
13 68 1
13 69 2
13 70 3
13 71 5
13 72 3
13 73 4
13 74 2
13 75 2
13 76 3
13 77 4
13 78 1
13 79 3
13 80 1
13 81 1
13 82 4
13 83 5
13 84 4
13 85 2
13 86 3
13 87 4
13 88 3
13 89 3
13 90 4
13 91 5
13 92 5
13 93 2
13 94 5
13 95 1
13 96 4
13 97 3
13 98 1
13 99 2
13 100 4
14 15 1
14 16 3
14 17 2
14 18 5
14 19 5
14 20 5
14 21 3
14 22 1
14 23 4
14 24 3
14 25 2
14 26 3
14 27 4
14 28 3
14 29 2
14 30 5
14 31 4
14 32 2
14 33 3
14 34 5
14 35 2
14 36 2
14 37 5
14 38 4
14 39 2
14 40 1
14 41 2
14 42 3
14 43 3
14 44 1
14 45 3
14 46 3
14 47 1
14 48 5
14 49 4
14 50 2
14 51 3
14 52 5
14 53 2
14 54 2
14 55 5
14 56 2
14 57 1
14 58 1
14 59 1
14 60 2
14 61 2
14 62 2
14 63 4
14 64 5
14 65 5
14 66 5
14 67 4
14 68 3
14 69 1
14 70 5
14 71 5
14 72 1
14 73 5
14 74 5
14 75 2
14 76 5
14 77 4
14 78 5
14 79 2
14 80 3
14 81 2
14 82 1
14 83 2
14 84 4
14 85 3
14 86 5
14 87 1
14 88 4
14 89 1
14 90 3
14 91 5
14 92 5
14 93 1
14 94 4
14 95 2
14 96 1
14 97 3
14 98 5
14 99 5
14 100 3
15 16 5
15 17 2
15 18 4
15 19 5
15 20 2
15 21 1
15 22 2
15 23 1
15 24 3
15 25 5
15 26 1
15 27 1
15 28 5
15 29 1
15 30 1
15 31 4
15 32 3
15 33 3
15 34 3
15 35 4
15 36 2
15 37 5
15 38 4
15 39 2
15 40 2
15 41 4
15 42 4
15 43 3
15 44 1
15 45 4
15 46 5
15 47 1
15 48 2
15 49 1
15 50 2
15 51 3
15 52 3
15 53 2
15 54 1
15 55 5
15 56 1
15 57 3
15 58 5
15 59 3
15 60 1
15 61 2
15 62 4
15 63 3
15 64 4
15 65 3
15 66 1
15 67 4
15 68 5
15 69 2
15 70 4
15 71 5
15 72 2
15 73 5
15 74 3
15 75 1
15 76 4
15 77 3
15 78 2
15 79 3
15 80 5
15 81 3
15 82 2
15 83 1
15 84 3
15 85 4
15 86 1
15 87 1
15 88 1
15 89 1
15 90 4
15 91 2
15 92 1
15 93 5
15 94 1
15 95 3
15 96 4
15 97 2
15 98 1
15 99 2
15 100 5
16 17 1
16 18 2
16 19 3
16 20 4
16 21 3
16 22 2
16 23 3
16 24 4
16 25 1
16 26 2
16 27 1
16 28 2
16 29 2
16 30 5
16 31 4
16 32 2
16 33 3
16 34 4
16 35 3
16 36 5
16 37 5
16 38 4
16 39 5
16 40 2
16 41 1
16 42 3
16 43 3
16 44 1
16 45 2
16 46 3
16 47 2
16 48 1
16 49 5
16 50 5
16 51 4
16 52 3
16 53 3
16 54 2
16 55 3
16 56 2
16 57 5
16 58 2
16 59 2
16 60 1
16 61 3
16 62 1
16 63 2
16 64 5
16 65 4
16 66 3
16 67 3
16 68 2
16 69 1
16 70 1
16 71 4
16 72 3
16 73 2
16 74 3
16 75 5
16 76 5
16 77 2
16 78 4
16 79 3
16 80 2
16 81 4
16 82 1
16 83 3
16 84 3
16 85 1
16 86 5
16 87 3
16 88 5
16 89 2
16 90 5
16 91 5
16 92 5
16 93 4
16 94 1
16 95 1
16 96 1
16 97 4
16 98 4
16 99 5
16 100 3
17 18 5
17 19 3
17 20 4
17 21 1
17 22 4
17 23 2
17 24 5
17 25 4
17 26 2
17 27 5
17 28 5
17 29 3
17 30 2
17 31 5
17 32 5
17 33 3
17 34 2
17 35 5
17 36 5
17 37 4
17 38 3
17 39 3
17 40 5
17 41 3
17 42 4
17 43 5
17 44 2
17 45 2
17 46 3
17 47 2
17 48 3
17 49 5
17 50 1
17 51 1
17 52 2
17 53 5
17 54 2
17 55 5
17 56 5
17 57 5
17 58 4
17 59 4
17 60 1
17 61 3
17 62 3
17 63 1
17 64 3
17 65 1
17 66 3
17 67 4
17 68 3
17 69 3
17 70 4
17 71 3
17 72 1
17 73 5
17 74 1
17 75 4
17 76 4
17 77 1
17 78 5
17 79 2
17 80 1
17 81 1
17 82 2
17 83 4
17 84 1
17 85 4
17 86 1
17 87 3
17 88 4
17 89 1
17 90 4
17 91 2
17 92 3
17 93 2
17 94 4
17 95 4
17 96 1
17 97 5
17 98 3
17 99 3
17 100 3
18 19 2
18 20 3
18 21 3
18 22 3
18 23 2
18 24 2
18 25 4
18 26 1
18 27 4
18 28 1
18 29 4
18 30 4
18 31 1
18 32 2
18 33 2
18 34 1
18 35 3
18 36 2
18 37 4
18 38 1
18 39 5
18 40 5
18 41 2
18 42 2
18 43 4
18 44 1
18 45 5
18 46 3
18 47 3
18 48 5
18 49 4
18 50 3
18 51 5
18 52 5
18 53 1
18 54 1
18 55 2
18 56 1
18 57 4
18 58 4
18 59 1
18 60 4
18 61 3
18 62 4
18 63 5
18 64 2
18 65 5
18 66 1
18 67 1
18 68 3
18 69 2
18 70 4
18 71 5
18 72 4
18 73 1
18 74 1
18 75 4
18 76 5
18 77 5
18 78 1
18 79 2
18 80 1
18 81 4
18 82 1
18 83 3
18 84 5
18 85 1
18 86 5
18 87 2
18 88 4
18 89 1
18 90 3
18 91 2
18 92 3
18 93 1
18 94 3
18 95 5
18 96 4
18 97 4
18 98 4
18 99 5
18 100 2
19 20 2
19 21 1
19 22 5
19 23 5
19 24 5
19 25 4
19 26 1
19 27 5
19 28 5
19 29 4
19 30 2
19 31 2
19 32 5
19 33 3
19 34 4
19 35 3
19 36 2
19 37 2
19 38 2
19 39 5
19 40 3
19 41 5
19 42 5
19 43 5
19 44 1
19 45 5
19 46 3
19 47 5
19 48 5
19 49 5
19 50 2
19 51 1
19 52 4
19 53 4
19 54 4
19 55 3
19 56 5
19 57 2
19 58 4
19 59 1
19 60 2
19 61 1
19 62 5
19 63 5
19 64 2
19 65 3
19 66 4
19 67 4
19 68 5
19 69 2
19 70 4
19 71 4
19 72 1
19 73 4
19 74 2
19 75 1
19 76 1
19 77 2
19 78 5
19 79 1
19 80 2
19 81 1
19 82 3
19 83 5
19 84 2
19 85 5
19 86 3
19 87 5
19 88 2
19 89 5
19 90 5
19 91 3
19 92 4
19 93 4
19 94 4
19 95 3
19 96 3
19 97 2
19 98 1
19 99 2
19 100 5
20 21 3
20 22 4
20 23 1
20 24 4
20 25 2
20 26 1
20 27 1
20 28 4
20 29 3
20 30 3
20 31 1
20 32 1
20 33 5
20 34 5
20 35 3
20 36 5
20 37 5
20 38 1
20 39 5
20 40 5
20 41 2
20 42 1
20 43 3
20 44 4
20 45 1
20 46 3
20 47 5
20 48 2
20 49 4
20 50 1
20 51 5
20 52 5
20 53 3
20 54 5
20 55 2
20 56 4
20 57 4
20 58 2
20 59 1
20 60 2
20 61 4
20 62 3
20 63 5
20 64 1
20 65 4
20 66 5
20 67 1
20 68 5
20 69 1
20 70 2
20 71 4
20 72 5
20 73 2
20 74 2
20 75 3
20 76 5
20 77 4
20 78 2
20 79 4
20 80 1
20 81 4
20 82 3
20 83 1
20 84 4
20 85 5
20 86 4
20 87 3
20 88 1
20 89 5
20 90 5
20 91 5
20 92 3
20 93 3
20 94 2
20 95 4
20 96 1
20 97 4
20 98 4
20 99 3
20 100 2
21 22 2
21 23 2
21 24 2
21 25 3
21 26 2
21 27 3
21 28 2
21 29 5
21 30 3
21 31 1
21 32 4
21 33 4
21 34 4
21 35 5
21 36 5
21 37 1
21 38 2
21 39 5
21 40 5
21 41 4
21 42 3
21 43 2
21 44 2
21 45 4
21 46 1
21 47 4
21 48 4
21 49 4
21 50 1
21 51 3
21 52 2
21 53 1
21 54 1
21 55 3
21 56 4
21 57 2
21 58 5
21 59 3
21 60 1
21 61 4
21 62 5
21 63 3
21 64 2
21 65 1
21 66 4
21 67 2
21 68 2
21 69 4
21 70 2
21 71 1
21 72 4
21 73 4
21 74 2
21 75 1
21 76 3
21 77 2
21 78 3
21 79 4
21 80 2
21 81 2
21 82 1
21 83 5
21 84 5
21 85 1
21 86 4
21 87 3
21 88 1
21 89 2
21 90 2
21 91 4
21 92 1
21 93 4
21 94 3
21 95 2
21 96 4
21 97 5
21 98 3
21 99 4
21 100 1
22 23 3
22 24 2
22 25 3
22 26 1
22 27 2
22 28 1
22 29 3
22 30 4
22 31 2
22 32 4
22 33 3
22 34 3
22 35 1
22 36 4
22 37 4
22 38 4
22 39 1
22 40 3
22 41 4
22 42 2
22 43 4
22 44 3
22 45 2
22 46 5
22 47 2
22 48 2
22 49 2
22 50 1
22 51 2
22 52 4
22 53 2
22 54 5
22 55 4
22 56 2
22 57 4
22 58 1
22 59 2
22 60 1
22 61 5
22 62 4
22 63 3
22 64 3
22 65 3
22 66 3
22 67 1
22 68 3
22 69 1
22 70 1
22 71 5
22 72 4
22 73 3
22 74 3
22 75 4
22 76 3
22 77 5
22 78 4
22 79 5
22 80 1
22 81 3
22 82 1
22 83 5
22 84 3
22 85 2
22 86 4
22 87 5
22 88 1
22 89 4
22 90 4
22 91 3
22 92 1
22 93 3
22 94 5
22 95 4
22 96 5
22 97 3
22 98 3
22 99 2
22 100 2
23 24 2
23 25 5
23 26 3
23 27 1
23 28 2
23 29 5
23 30 1
23 31 1
23 32 4
23 33 5
23 34 2
23 35 3
23 36 4
23 37 4
23 38 3
23 39 2
23 40 5
23 41 5
23 42 1
23 43 2
23 44 2
23 45 2
23 46 3
23 47 4
23 48 2
23 49 2
23 50 5
23 51 5
23 52 5
23 53 3
23 54 2
23 55 4
23 56 2
23 57 1
23 58 2
23 59 5
23 60 5
23 61 3
23 62 5
23 63 4
23 64 4
23 65 3
23 66 5
23 67 3
23 68 5
23 69 3
23 70 2
23 71 5
23 72 3
23 73 1
23 74 1
23 75 4
23 76 1
23 77 3
23 78 4
23 79 4
23 80 2
23 81 4
23 82 2
23 83 2
23 84 2
23 85 2
23 86 5
23 87 3
23 88 4
23 89 2
23 90 5
23 91 5
23 92 1
23 93 3
23 94 3
23 95 4
23 96 3
23 97 4
23 98 5
23 99 2
23 100 2
24 25 1
24 26 3
24 27 3
24 28 2
24 29 1
24 30 1
24 31 5
24 32 4
24 33 1
24 34 1
24 35 1
24 36 2
24 37 5
24 38 4
24 39 5
24 40 4
24 41 5
24 42 1
24 43 3
24 44 5
24 45 3
24 46 1
24 47 2
24 48 4
24 49 1
24 50 5
24 51 4
24 52 3
24 53 3
24 54 1
24 55 2
24 56 5
24 57 5
24 58 5
24 59 3
24 60 1
24 61 1
24 62 1
24 63 1
24 64 5
24 65 1
24 66 3
24 67 1
24 68 5
24 69 1
24 70 3
24 71 5
24 72 3
24 73 4
24 74 2
24 75 4
24 76 2
24 77 4
24 78 5
24 79 4
24 80 5
24 81 1
24 82 1
24 83 2
24 84 4
24 85 3
24 86 4
24 87 2
24 88 4
24 89 3
24 90 3
24 91 1
24 92 2
24 93 3
24 94 4
24 95 5
24 96 4
24 97 5
24 98 3
24 99 2
24 100 4
25 26 5
25 27 5
25 28 2
25 29 3
25 30 1
25 31 5
25 32 5
25 33 1
25 34 1
25 35 5
25 36 4
25 37 2
25 38 1
25 39 5
25 40 3
25 41 5
25 42 4
25 43 2
25 44 1
25 45 3
25 46 5
25 47 4
25 48 3
25 49 2
25 50 3
25 51 3
25 52 2
25 53 2
25 54 2
25 55 2
25 56 2
25 57 1
25 58 5
25 59 4
25 60 5
25 61 5
25 62 3
25 63 4
25 64 5
25 65 5
25 66 4
25 67 5
25 68 5
25 69 4
25 70 2
25 71 5
25 72 4
25 73 4
25 74 5
25 75 4
25 76 1
25 77 4
25 78 1
25 79 2
25 80 5
25 81 3
25 82 4
25 83 2
25 84 1
25 85 4
25 86 2
25 87 1
25 88 3
25 89 3
25 90 5
25 91 2
25 92 3
25 93 4
25 94 3
25 95 1
25 96 3
25 97 2
25 98 2
25 99 3
25 100 2
26 27 4
26 28 2
26 29 4
26 30 4
26 31 2
26 32 3
26 33 5
26 34 1
26 35 2
26 36 5
26 37 3
26 38 3
26 39 1
26 40 3
26 41 3
26 42 2
26 43 4
26 44 1
26 45 2
26 46 2
26 47 2
26 48 5
26 49 2
26 50 2
26 51 1
26 52 2
26 53 2
26 54 2
26 55 1
26 56 3
26 57 2
26 58 2
26 59 2
26 60 3
26 61 3
26 62 2
26 63 1
26 64 5
26 65 2
26 66 5
26 67 4
26 68 4
26 69 1
26 70 4
26 71 2
26 72 3
26 73 2
26 74 3
26 75 1
26 76 4
26 77 5
26 78 1
26 79 2
26 80 3
26 81 3
26 82 4
26 83 4
26 84 5
26 85 2
26 86 2
26 87 3
26 88 5
26 89 4
26 90 1
26 91 3
26 92 2
26 93 3
26 94 3
26 95 2
26 96 3
26 97 1
26 98 2
26 99 1
26 100 5
27 28 1
27 29 3
27 30 5
27 31 1
27 32 1
27 33 3
27 34 3
27 35 3
27 36 2
27 37 2
27 38 3
27 39 5
27 40 2
27 41 3
27 42 2
27 43 3
27 44 2
27 45 3
27 46 4
27 47 4
27 48 4
27 49 5
27 50 5
27 51 4
27 52 1
27 53 1
27 54 3
27 55 5
27 56 2
27 57 5
27 58 5
27 59 4
27 60 2
27 61 2
27 62 4
27 63 5
27 64 3
27 65 4
27 66 1
27 67 5
27 68 2
27 69 3
27 70 3
27 71 4
27 72 4
27 73 2
27 74 5
27 75 5
27 76 2
27 77 5
27 78 2
27 79 5
27 80 5
27 81 2
27 82 4
27 83 5
27 84 3
27 85 5
27 86 2
27 87 2
27 88 2
27 89 2
27 90 2
27 91 4
27 92 1
27 93 1
27 94 1
27 95 1
27 96 3
27 97 2
27 98 3
27 99 3
27 100 2
28 29 1
28 30 5
28 31 4
28 32 5
28 33 5
28 34 3
28 35 2
28 36 5
28 37 2
28 38 4
28 39 5
28 40 2
28 41 2
28 42 1
28 43 3
28 44 2
28 45 1
28 46 4
28 47 1
28 48 5
28 49 1
28 50 5
28 51 3
28 52 2
28 53 3
28 54 2
28 55 2
28 56 5
28 57 4
28 58 3
28 59 5
28 60 2
28 61 2
28 62 2
28 63 1
28 64 2
28 65 4
28 66 2
28 67 1
28 68 1
28 69 5
28 70 3
28 71 1
28 72 3
28 73 4
28 74 4
28 75 1
28 76 3
28 77 2
28 78 1
28 79 5
28 80 4
28 81 3
28 82 1
28 83 4
28 84 1
28 85 4
28 86 5
28 87 5
28 88 2
28 89 1
28 90 4
28 91 1
28 92 3
28 93 3
28 94 3
28 95 5
28 96 3
28 97 3
28 98 2
28 99 5
28 100 5
29 30 3
29 31 1
29 32 1
29 33 2
29 34 5
29 35 5
29 36 3
29 37 3
29 38 4
29 39 3
29 40 5
29 41 5
29 42 5
29 43 3
29 44 3
29 45 3
29 46 2
29 47 4
29 48 4
29 49 2
29 50 5
29 51 5
29 52 2
29 53 1
29 54 4
29 55 3
29 56 5
29 57 1
29 58 5
29 59 5
29 60 2
29 61 4
29 62 1
29 63 3
29 64 5
29 65 4
29 66 4
29 67 2
29 68 1
29 69 4
29 70 2
29 71 1
29 72 1
29 73 1
29 74 4
29 75 3
29 76 5
29 77 2
29 78 3
29 79 3
29 80 3
29 81 4
29 82 1
29 83 3
29 84 1
29 85 2
29 86 4
29 87 3
29 88 3
29 89 1
29 90 2
29 91 1
29 92 4
29 93 4
29 94 1
29 95 4
29 96 3
29 97 4
29 98 5
29 99 1
29 100 1
30 31 1
30 32 3
30 33 1
30 34 3
30 35 4
30 36 4
30 37 1
30 38 3
30 39 2
30 40 3
30 41 1
30 42 4
30 43 5
30 44 1
30 45 1
30 46 1
30 47 2
30 48 2
30 49 1
30 50 1
30 51 2
30 52 5
30 53 2
30 54 1
30 55 1
30 56 2
30 57 1
30 58 2
30 59 1
30 60 5
30 61 5
30 62 2
30 63 5
30 64 5
30 65 1
30 66 5
30 67 4
30 68 4
30 69 4
30 70 1
30 71 2
30 72 3
30 73 4
30 74 2
30 75 5
30 76 3
30 77 4
30 78 1
30 79 2
30 80 2
30 81 3
30 82 1
30 83 2
30 84 3
30 85 2
30 86 2
30 87 2
30 88 2
30 89 4
30 90 1
30 91 3
30 92 2
30 93 3
30 94 4
30 95 4
30 96 3
30 97 2
30 98 1
30 99 1
30 100 5
31 32 3
31 33 1
31 34 4
31 35 5
31 36 4
31 37 3
31 38 5
31 39 4
31 40 5
31 41 2
31 42 5
31 43 5
31 44 1
31 45 3
31 46 1
31 47 1
31 48 5
31 49 1
31 50 1
31 51 3
31 52 4
31 53 1
31 54 1
31 55 4
31 56 1
31 57 4
31 58 5
31 59 3
31 60 5
31 61 2
31 62 4
31 63 3
31 64 4
31 65 3
31 66 1
31 67 3
31 68 2
31 69 4
31 70 1
31 71 1
31 72 2
31 73 4
31 74 2
31 75 5
31 76 5
31 77 1
31 78 2
31 79 2
31 80 4
31 81 2
31 82 1
31 83 3
31 84 4
31 85 5
31 86 1
31 87 3
31 88 1
31 89 1
31 90 5
31 91 2
31 92 3
31 93 3
31 94 4
31 95 4
31 96 2
31 97 2
31 98 5
31 99 4
31 100 2
32 33 2
32 34 5
32 35 1
32 36 3
32 37 2
32 38 1
32 39 1
32 40 1
32 41 3
32 42 4
32 43 1
32 44 3
32 45 3
32 46 2
32 47 1
32 48 4
32 49 5
32 50 3
32 51 2
32 52 5
32 53 2
32 54 4
32 55 3
32 56 2
32 57 5
32 58 1
32 59 4
32 60 5
32 61 4
32 62 1
32 63 5
32 64 2
32 65 1
32 66 4
32 67 4
32 68 3
32 69 4
32 70 5
32 71 3
32 72 1
32 73 5
32 74 2
32 75 5
32 76 4
32 77 3
32 78 5
32 79 2
32 80 5
32 81 3
32 82 1
32 83 5
32 84 1
32 85 2
32 86 5
32 87 3
32 88 2
32 89 5
32 90 2
32 91 5
32 92 1
32 93 5
32 94 5
32 95 1
32 96 5
32 97 5
32 98 4
32 99 2
32 100 5
33 34 4
33 35 5
33 36 1
33 37 5
33 38 3
33 39 2
33 40 1
33 41 5
33 42 4
33 43 2
33 44 2
33 45 5
33 46 5
33 47 2
33 48 3
33 49 4
33 50 5
33 51 5
33 52 3
33 53 3
33 54 2
33 55 2
33 56 4
33 57 4
33 58 5
33 59 4
33 60 3
33 61 2
33 62 2
33 63 2
33 64 4
33 65 4
33 66 5
33 67 1
33 68 5
33 69 1
33 70 5
33 71 3
33 72 5
33 73 5
33 74 4
33 75 5
33 76 4
33 77 1
33 78 5
33 79 1
33 80 2
33 81 4
33 82 3
33 83 3
33 84 2
33 85 1
33 86 3
33 87 2
33 88 2
33 89 3
33 90 1
33 91 4
33 92 5
33 93 4
33 94 2
33 95 3
33 96 4
33 97 3
33 98 2
33 99 2
33 100 3
34 35 4
34 36 5
34 37 2
34 38 1
34 39 5
34 40 4
34 41 5
34 42 2
34 43 2
34 44 2
34 45 5
34 46 3
34 47 3
34 48 4
34 49 3
34 50 3
34 51 4
34 52 5
34 53 5
34 54 5
34 55 5
34 56 1
34 57 5
34 58 3
34 59 2
34 60 2
34 61 2
34 62 3
34 63 4
34 64 5
34 65 1
34 66 1
34 67 2
34 68 3
34 69 1
34 70 3
34 71 1
34 72 2
34 73 5
34 74 5
34 75 1
34 76 1
34 77 3
34 78 3
34 79 4
34 80 4
34 81 2
34 82 4
34 83 4
34 84 3
34 85 5
34 86 5
34 87 3
34 88 2
34 89 1
34 90 5
34 91 5
34 92 1
34 93 3
34 94 3
34 95 5
34 96 4
34 97 2
34 98 2
34 99 1
34 100 1
35 36 1
35 37 1
35 38 5
35 39 3
35 40 1
35 41 2
35 42 3
35 43 3
35 44 2
35 45 1
35 46 1
35 47 5
35 48 4
35 49 4
35 50 1
35 51 3
35 52 1
35 53 3
35 54 2
35 55 4
35 56 4
35 57 3
35 58 2
35 59 2
35 60 1
35 61 2
35 62 1
35 63 2
35 64 3
35 65 3
35 66 3
35 67 1
35 68 5
35 69 4
35 70 2
35 71 2
35 72 1
35 73 3
35 74 5
35 75 2
35 76 4
35 77 3
35 78 1
35 79 2
35 80 1
35 81 3
35 82 1
35 83 2
35 84 2
35 85 4
35 86 1
35 87 3
35 88 1
35 89 1
35 90 1
35 91 3
35 92 5
35 93 5
35 94 2
35 95 2
35 96 5
35 97 5
35 98 4
35 99 2
35 100 4
36 37 1
36 38 3
36 39 4
36 40 4
36 41 4
36 42 5
36 43 4
36 44 1
36 45 4
36 46 4
36 47 2
36 48 1
36 49 3
36 50 4
36 51 3
36 52 3
36 53 2
36 54 5
36 55 4
36 56 3
36 57 3
36 58 4
36 59 5
36 60 1
36 61 3
36 62 3
36 63 3
36 64 1
36 65 4
36 66 2
36 67 4
36 68 5
36 69 4
36 70 4
36 71 3
36 72 2
36 73 4
36 74 4
36 75 2
36 76 3
36 77 2
36 78 3
36 79 5
36 80 2
36 81 5
36 82 3
36 83 1
36 84 4
36 85 5
36 86 2
36 87 2
36 88 5
36 89 4
36 90 4
36 91 3
36 92 5
36 93 3
36 94 5
36 95 4
36 96 3
36 97 4
36 98 5
36 99 1
36 100 3
37 38 3
37 39 4
37 40 5
37 41 5
37 42 4
37 43 1
37 44 3
37 45 2
37 46 1
37 47 1
37 48 2
37 49 5
37 50 2
37 51 4
37 52 2
37 53 3
37 54 5
37 55 5
37 56 4
37 57 5
37 58 2
37 59 2
37 60 2
37 61 4
37 62 5
37 63 5
37 64 1
37 65 2
37 66 2
37 67 3
37 68 3
37 69 1
37 70 2
37 71 4
37 72 1
37 73 1
37 74 5
37 75 2
37 76 3
37 77 4
37 78 2
37 79 3
37 80 2
37 81 2
37 82 1
37 83 1
37 84 4
37 85 2
37 86 1
37 87 5
37 88 4
37 89 1
37 90 3
37 91 3
37 92 1
37 93 5
37 94 1
37 95 2
37 96 5
37 97 1
37 98 1
37 99 4
37 100 5
38 39 2
38 40 4
38 41 5
38 42 4
38 43 1
38 44 1
38 45 2
38 46 3
38 47 2
38 48 4
38 49 5
38 50 4
38 51 3
38 52 2
38 53 4
38 54 2
38 55 1
38 56 3
38 57 3
38 58 2
38 59 2
38 60 4
38 61 5
38 62 3
38 63 5
38 64 3
38 65 1
38 66 3
38 67 1
38 68 4
38 69 1
38 70 1
38 71 2
38 72 1
38 73 3
38 74 5
38 75 4
38 76 3
38 77 2
38 78 5
38 79 2
38 80 5
38 81 3
38 82 1
38 83 5
38 84 4
38 85 3
38 86 3
38 87 4
38 88 2
38 89 4
38 90 4
38 91 2
38 92 1
38 93 5
38 94 4
38 95 2
38 96 5
38 97 5
38 98 1
38 99 2
38 100 1
39 40 1
39 41 4
39 42 1
39 43 4
39 44 4
39 45 1
39 46 2
39 47 4
39 48 4
39 49 1
39 50 4
39 51 2
39 52 5
39 53 2
39 54 4
39 55 4
39 56 1
39 57 2
39 58 4
39 59 3
39 60 1
39 61 4
39 62 2
39 63 5
39 64 1
39 65 2
39 66 4
39 67 3
39 68 5
39 69 2
39 70 5
39 71 2
39 72 2
39 73 3
39 74 2
39 75 4
39 76 5
39 77 1
39 78 5
39 79 4
39 80 2
39 81 3
39 82 3
39 83 2
39 84 5
39 85 3
39 86 2
39 87 5
39 88 1
39 89 3
39 90 5
39 91 2
39 92 3
39 93 4
39 94 2
39 95 3
39 96 3
39 97 1
39 98 1
39 99 5
39 100 3
40 41 2
40 42 1
40 43 2
40 44 3
40 45 5
40 46 3
40 47 5
40 48 1
40 49 5
40 50 5
40 51 2
40 52 5
40 53 2
40 54 2
40 55 4
40 56 2
40 57 5
40 58 1
40 59 1
40 60 5
40 61 4
40 62 5
40 63 4
40 64 5
40 65 2
40 66 4
40 67 1
40 68 4
40 69 2
40 70 3
40 71 5
40 72 5
40 73 1
40 74 3
40 75 2
40 76 1
40 77 4
40 78 4
40 79 5
40 80 5
40 81 2
40 82 1
40 83 2
40 84 5
40 85 1
40 86 3
40 87 4
40 88 1
40 89 2
40 90 1
40 91 4
40 92 3
40 93 2
40 94 5
40 95 1
40 96 1
40 97 5
40 98 2
40 99 5
40 100 1
41 42 3
41 43 1
41 44 1
41 45 4
41 46 5
41 47 3
41 48 2
41 49 2
41 50 5
41 51 2
41 52 1
41 53 5
41 54 1
41 55 2
41 56 2
41 57 5
41 58 5
41 59 1
41 60 1
41 61 2
41 62 5
41 63 5
41 64 4
41 65 5
41 66 4
41 67 2
41 68 4
41 69 3
41 70 3
41 71 4
41 72 1
41 73 2
41 74 3
41 75 1
41 76 3
41 77 1
41 78 3
41 79 5
41 80 1
41 81 3
41 82 5
41 83 4
41 84 3
41 85 1
41 86 1
41 87 3
41 88 3
41 89 3
41 90 4
41 91 4
41 92 3
41 93 1
41 94 4
41 95 2
41 96 5
41 97 3
41 98 1
41 99 1
41 100 2
42 43 4
42 44 3
42 45 5
42 46 2
42 47 1
42 48 5
42 49 5
42 50 2
42 51 3
42 52 1
42 53 1
42 54 5
42 55 5
42 56 4
42 57 1
42 58 4
42 59 5
42 60 1
42 61 4
42 62 5
42 63 3
42 64 5
42 65 5
42 66 1
42 67 2
42 68 1
42 69 4
42 70 2
42 71 1
42 72 3
42 73 1
42 74 2
42 75 4
42 76 1
42 77 2
42 78 2
42 79 1
42 80 5
42 81 4
42 82 3
42 83 5
42 84 5
42 85 3
42 86 2
42 87 5
42 88 1
42 89 5
42 90 5
42 91 1
42 92 2
42 93 4
42 94 4
42 95 2
42 96 1
42 97 4
42 98 5
42 99 2
42 100 5
43 44 5
43 45 2
43 46 4
43 47 2
43 48 5
43 49 1
43 50 2
43 51 1
43 52 4
43 53 4
43 54 4
43 55 3
43 56 1
43 57 3
43 58 3
43 59 4
43 60 5
43 61 3
43 62 2
43 63 2
43 64 5
43 65 2
43 66 5
43 67 2
43 68 3
43 69 3
43 70 5
43 71 2
43 72 5
43 73 1
43 74 5
43 75 3
43 76 2
43 77 5
43 78 2
43 79 4
43 80 5
43 81 5
43 82 1
43 83 3
43 84 2
43 85 2
43 86 2
43 87 3
43 88 5
43 89 2
43 90 3
43 91 5
43 92 2
43 93 4
43 94 1
43 95 3
43 96 1
43 97 3
43 98 4
43 99 5
43 100 5
44 45 3
44 46 4
44 47 3
44 48 2
44 49 5
44 50 1
44 51 1
44 52 5
44 53 5
44 54 1
44 55 5
44 56 2
44 57 2
44 58 3
44 59 1
44 60 3
44 61 5
44 62 5
44 63 4
44 64 3
44 65 1
44 66 4
44 67 1
44 68 5
44 69 2
44 70 3
44 71 1
44 72 2
44 73 5
44 74 1
44 75 2
44 76 4
44 77 4
44 78 4
44 79 5
44 80 1
44 81 4
44 82 3
44 83 2
44 84 1
44 85 1
44 86 5
44 87 1
44 88 1
44 89 4
44 90 3
44 91 1
44 92 1
44 93 2
44 94 2
44 95 4
44 96 4
44 97 2
44 98 1
44 99 3
44 100 3
45 46 5
45 47 1
45 48 2
45 49 1
45 50 1
45 51 5
45 52 2
45 53 2
45 54 1
45 55 2
45 56 5
45 57 5
45 58 2
45 59 5
45 60 3
45 61 3
45 62 2
45 63 2
45 64 4
45 65 3
45 66 5
45 67 3
45 68 3
45 69 1
45 70 2
45 71 5
45 72 3
45 73 5
45 74 2
45 75 3
45 76 5
45 77 3
45 78 5
45 79 5
45 80 1
45 81 5
45 82 5
45 83 2
45 84 1
45 85 3
45 86 1
45 87 3
45 88 5
45 89 5
45 90 4
45 91 2
45 92 4
45 93 5
45 94 1
45 95 3
45 96 1
45 97 3
45 98 5
45 99 3
45 100 5
46 47 1
46 48 3
46 49 3
46 50 2
46 51 2
46 52 5
46 53 2
46 54 3
46 55 1
46 56 2
46 57 5
46 58 2
46 59 2
46 60 2
46 61 2
46 62 2
46 63 4
46 64 1
46 65 5
46 66 2
46 67 2
46 68 2
46 69 2
46 70 3
46 71 4
46 72 4
46 73 4
46 74 2
46 75 3
46 76 3
46 77 1
46 78 2
46 79 3
46 80 3
46 81 5
46 82 1
46 83 1
46 84 2
46 85 1
46 86 1
46 87 5
46 88 5
46 89 2
46 90 5
46 91 3
46 92 3
46 93 3
46 94 5
46 95 4
46 96 2
46 97 5
46 98 4
46 99 1
46 100 5
47 48 1
47 49 1
47 50 4
47 51 5
47 52 5
47 53 2
47 54 1
47 55 3
47 56 1
47 57 5
47 58 4
47 59 4
47 60 3
47 61 1
47 62 3
47 63 1
47 64 3
47 65 3
47 66 2
47 67 4
47 68 3
47 69 2
47 70 3
47 71 3
47 72 3
47 73 4
47 74 5
47 75 5
47 76 4
47 77 2
47 78 2
47 79 1
47 80 4
47 81 5
47 82 3
47 83 4
47 84 1
47 85 3
47 86 4
47 87 1
47 88 5
47 89 2
47 90 1
47 91 5
47 92 5
47 93 3
47 94 2
47 95 1
47 96 3
47 97 5
47 98 4
47 99 3
47 100 2
48 49 1
48 50 1
48 51 1
48 52 3
48 53 3
48 54 5
48 55 1
48 56 1
48 57 3
48 58 2
48 59 5
48 60 4
48 61 2
48 62 4
48 63 4
48 64 5
48 65 4
48 66 5
48 67 2
48 68 1
48 69 5
48 70 1
48 71 2
48 72 5
48 73 4
48 74 3
48 75 1
48 76 1
48 77 1
48 78 3
48 79 4
48 80 3
48 81 4
48 82 3
48 83 5
48 84 5
48 85 2
48 86 1
48 87 4
48 88 1
48 89 3
48 90 4
48 91 3
48 92 5
48 93 2
48 94 3
48 95 4
48 96 3
48 97 1
48 98 1
48 99 1
48 100 1
49 50 5
49 51 2
49 52 4
49 53 2
49 54 1
49 55 3
49 56 1
49 57 3
49 58 5
49 59 1
49 60 5
49 61 4
49 62 1
49 63 4
49 64 3
49 65 5
49 66 4
49 67 3
49 68 5
49 69 5
49 70 3
49 71 3
49 72 2
49 73 4
49 74 2
49 75 3
49 76 4
49 77 5
49 78 3
49 79 5
49 80 3
49 81 2
49 82 3
49 83 3
49 84 3
49 85 5
49 86 4
49 87 3
49 88 5
49 89 5
49 90 3
49 91 1
49 92 2
49 93 4
49 94 4
49 95 5
49 96 2
49 97 2
49 98 5
49 99 1
49 100 3
50 51 2
50 52 1
50 53 2
50 54 1
50 55 4
50 56 5
50 57 5
50 58 3
50 59 4
50 60 1
50 61 2
50 62 2
50 63 1
50 64 5
50 65 4
50 66 2
50 67 2
50 68 1
50 69 3
50 70 5
50 71 4
50 72 4
50 73 5
50 74 5
50 75 4
50 76 5
50 77 3
50 78 4
50 79 2
50 80 5
50 81 1
50 82 5
50 83 3
50 84 4
50 85 3
50 86 5
50 87 1
50 88 1
50 89 5
50 90 5
50 91 4
50 92 4
50 93 4
50 94 5
50 95 3
50 96 4
50 97 5
50 98 1
50 99 3
50 100 4
51 52 1
51 53 3
51 54 1
51 55 3
51 56 3
51 57 1
51 58 5
51 59 5
51 60 2
51 61 4
51 62 4
51 63 4
51 64 1
51 65 1
51 66 2
51 67 4
51 68 4
51 69 1
51 70 5
51 71 1
51 72 1
51 73 2
51 74 4
51 75 5
51 76 4
51 77 5
51 78 2
51 79 2
51 80 2
51 81 2
51 82 1
51 83 3
51 84 2
51 85 5
51 86 3
51 87 4
51 88 4
51 89 4
51 90 5
51 91 3
51 92 5
51 93 3
51 94 5
51 95 1
51 96 4
51 97 2
51 98 2
51 99 2
51 100 1
52 53 5
52 54 5
52 55 4
52 56 1
52 57 3
52 58 2
52 59 1
52 60 4
52 61 3
52 62 1
52 63 5
52 64 5
52 65 3
52 66 3
52 67 1
52 68 5
52 69 2
52 70 2
52 71 1
52 72 4
52 73 4
52 74 1
52 75 5
52 76 2
52 77 5
52 78 1
52 79 4
52 80 5
52 81 4
52 82 5
52 83 1
52 84 3
52 85 3
52 86 2
52 87 1
52 88 1
52 89 3
52 90 5
52 91 5
52 92 2
52 93 5
52 94 3
52 95 5
52 96 2
52 97 5
52 98 3
52 99 5
52 100 2
53 54 1
53 55 5
53 56 4
53 57 4
53 58 1
53 59 4
53 60 5
53 61 1
53 62 5
53 63 1
53 64 4
53 65 1
53 66 5
53 67 5
53 68 5
53 69 1
53 70 2
53 71 5
53 72 3
53 73 5
53 74 3
53 75 4
53 76 4
53 77 2
53 78 5
53 79 2
53 80 3
53 81 4
53 82 3
53 83 5
53 84 2
53 85 4
53 86 3
53 87 2
53 88 4
53 89 1
53 90 1
53 91 3
53 92 4
53 93 2
53 94 1
53 95 1
53 96 4
53 97 2
53 98 4
53 99 4
53 100 4
54 55 4
54 56 3
54 57 3
54 58 1
54 59 1
54 60 4
54 61 3
54 62 2
54 63 2
54 64 2
54 65 1
54 66 4
54 67 5
54 68 1
54 69 2
54 70 2
54 71 2
54 72 3
54 73 1
54 74 1
54 75 1
54 76 4
54 77 2
54 78 3
54 79 4
54 80 3
54 81 1
54 82 4
54 83 3
54 84 5
54 85 5
54 86 5
54 87 3
54 88 3
54 89 1
54 90 4
54 91 1
54 92 4
54 93 3
54 94 3
54 95 5
54 96 1
54 97 3
54 98 4
54 99 3
54 100 1
55 56 4
55 57 1
55 58 2
55 59 1
55 60 2
55 61 1
55 62 5
55 63 5
55 64 3
55 65 2
55 66 4
55 67 3
55 68 3
55 69 4
55 70 1
55 71 3
55 72 2
55 73 5
55 74 5
55 75 4
55 76 2
55 77 2
55 78 2
55 79 3
55 80 3
55 81 2
55 82 4
55 83 1
55 84 2
55 85 5
55 86 1
55 87 5
55 88 4
55 89 3
55 90 5
55 91 3
55 92 5
55 93 3
55 94 3
55 95 4
55 96 5
55 97 2
55 98 4
55 99 5
55 100 1
56 57 3
56 58 1
56 59 1
56 60 3
56 61 1
56 62 4
56 63 1
56 64 5
56 65 3
56 66 3
56 67 1
56 68 1
56 69 1
56 70 5
56 71 1
56 72 2
56 73 4
56 74 3
56 75 1
56 76 3
56 77 3
56 78 3
56 79 1
56 80 2
56 81 4
56 82 5
56 83 4
56 84 1
56 85 1
56 86 3
56 87 2
56 88 1
56 89 4
56 90 4
56 91 3
56 92 5
56 93 2
56 94 5
56 95 4
56 96 5
56 97 5
56 98 3
56 99 1
56 100 4
57 58 5
57 59 4
57 60 1
57 61 3
57 62 5
57 63 5
57 64 1
57 65 2
57 66 1
57 67 3
57 68 4
57 69 5
57 70 4
57 71 3
57 72 5
57 73 5
57 74 3
57 75 1
57 76 2
57 77 5
57 78 3
57 79 1
57 80 1
57 81 2
57 82 3
57 83 1
57 84 5
57 85 4
57 86 2
57 87 3
57 88 4
57 89 5
57 90 1
57 91 3
57 92 5
57 93 3
57 94 2
57 95 5
57 96 3
57 97 1
57 98 5
57 99 3
57 100 2
58 59 2
58 60 3
58 61 4
58 62 2
58 63 3
58 64 4
58 65 2
58 66 4
58 67 2
58 68 3
58 69 2
58 70 4
58 71 1
58 72 5
58 73 1
58 74 5
58 75 2
58 76 3
58 77 4
58 78 4
58 79 1
58 80 5
58 81 2
58 82 2
58 83 5
58 84 2
58 85 3
58 86 2
58 87 5
58 88 4
58 89 5
58 90 5
58 91 4
58 92 3
58 93 2
58 94 2
58 95 2
58 96 4
58 97 4
58 98 4
58 99 4
58 100 2
59 60 4
59 61 1
59 62 2
59 63 2
59 64 2
59 65 5
59 66 4
59 67 2
59 68 4
59 69 1
59 70 5
59 71 3
59 72 4
59 73 4
59 74 2
59 75 1
59 76 3
59 77 3
59 78 4
59 79 4
59 80 5
59 81 4
59 82 1
59 83 1
59 84 5
59 85 3
59 86 3
59 87 3
59 88 3
59 89 3
59 90 1
59 91 3
59 92 2
59 93 4
59 94 1
59 95 4
59 96 1
59 97 3
59 98 5
59 99 2
59 100 5
60 61 4
60 62 4
60 63 5
60 64 1
60 65 2
60 66 4
60 67 3
60 68 3
60 69 5
60 70 4
60 71 4
60 72 1
60 73 2
60 74 3
60 75 5
60 76 3
60 77 2
60 78 1
60 79 5
60 80 4
60 81 4
60 82 1
60 83 2
60 84 3
60 85 3
60 86 3
60 87 5
60 88 4
60 89 4
60 90 3
60 91 5
60 92 5
60 93 3
60 94 3
60 95 4
60 96 2
60 97 4
60 98 2
60 99 4
60 100 1
61 62 5
61 63 3
61 64 2
61 65 5
61 66 1
61 67 1
61 68 1
61 69 2
61 70 3
61 71 2
61 72 3
61 73 4
61 74 4
61 75 2
61 76 4
61 77 3
61 78 2
61 79 3
61 80 5
61 81 5
61 82 3
61 83 4
61 84 1
61 85 2
61 86 1
61 87 5
61 88 4
61 89 4
61 90 1
61 91 2
61 92 5
61 93 2
61 94 1
61 95 1
61 96 3
61 97 3
61 98 3
61 99 5
61 100 5
62 63 4
62 64 1
62 65 5
62 66 2
62 67 3
62 68 5
62 69 4
62 70 2
62 71 3
62 72 2
62 73 2
62 74 5
62 75 1
62 76 1
62 77 1
62 78 3
62 79 5
62 80 4
62 81 4
62 82 3
62 83 4
62 84 3
62 85 5
62 86 4
62 87 4
62 88 1
62 89 4
62 90 3
62 91 4
62 92 5
62 93 2
62 94 5
62 95 3
62 96 1
62 97 2
62 98 2
62 99 5
62 100 5
63 64 2
63 65 1
63 66 3
63 67 5
63 68 5
63 69 3
63 70 5
63 71 2
63 72 5
63 73 2
63 74 2
63 75 2
63 76 2
63 77 5
63 78 4
63 79 5
63 80 5
63 81 5
63 82 1
63 83 1
63 84 2
63 85 1
63 86 1
63 87 5
63 88 3
63 89 3
63 90 3
63 91 1
63 92 3
63 93 5
63 94 2
63 95 1
63 96 3
63 97 5
63 98 5
63 99 1
63 100 4
64 65 5
64 66 1
64 67 3
64 68 5
64 69 1
64 70 3
64 71 5
64 72 1
64 73 4
64 74 1
64 75 1
64 76 2
64 77 3
64 78 5
64 79 5
64 80 5
64 81 2
64 82 2
64 83 2
64 84 1
64 85 1
64 86 1
64 87 2
64 88 1
64 89 3
64 90 3
64 91 1
64 92 2
64 93 5
64 94 1
64 95 4
64 96 3
64 97 5
64 98 1
64 99 5
64 100 4
65 66 1
65 67 4
65 68 2
65 69 3
65 70 1
65 71 1
65 72 3
65 73 3
65 74 1
65 75 1
65 76 3
65 77 3
65 78 4
65 79 5
65 80 3
65 81 1
65 82 1
65 83 3
65 84 2
65 85 5
65 86 3
65 87 3
65 88 4
65 89 2
65 90 4
65 91 4
65 92 4
65 93 4
65 94 2
65 95 3
65 96 4
65 97 4
65 98 5
65 99 5
65 100 3
66 67 4
66 68 3
66 69 5
66 70 2
66 71 3
66 72 4
66 73 4
66 74 1
66 75 4
66 76 2
66 77 4
66 78 3
66 79 2
66 80 5
66 81 1
66 82 4
66 83 2
66 84 2
66 85 1
66 86 4
66 87 1
66 88 2
66 89 2
66 90 5
66 91 4
66 92 2
66 93 4
66 94 5
66 95 1
66 96 1
66 97 5
66 98 3
66 99 2
66 100 1
67 68 1
67 69 4
67 70 2
67 71 4
67 72 2
67 73 3
67 74 2
67 75 4
67 76 3
67 77 3
67 78 4
67 79 1
67 80 4
67 81 3
67 82 3
67 83 4
67 84 2
67 85 3
67 86 1
67 87 2
67 88 5
67 89 1
67 90 1
67 91 1
67 92 4
67 93 4
67 94 5
67 95 4
67 96 3
67 97 4
67 98 4
67 99 4
67 100 3
68 69 1
68 70 4
68 71 5
68 72 4
68 73 2
68 74 5
68 75 4
68 76 4
68 77 5
68 78 4
68 79 5
68 80 5
68 81 2
68 82 2
68 83 3
68 84 2
68 85 2
68 86 4
68 87 3
68 88 4
68 89 5
68 90 2
68 91 1
68 92 2
68 93 3
68 94 3
68 95 2
68 96 1
68 97 2
68 98 4
68 99 1
68 100 3
69 70 5
69 71 1
69 72 2
69 73 5
69 74 3
69 75 2
69 76 2
69 77 1
69 78 2
69 79 2
69 80 3
69 81 5
69 82 4
69 83 1
69 84 3
69 85 5
69 86 4
69 87 3
69 88 3
69 89 3
69 90 1
69 91 1
69 92 4
69 93 3
69 94 4
69 95 3
69 96 2
69 97 3
69 98 4
69 99 4
69 100 4
70 71 1
70 72 2
70 73 1
70 74 4
70 75 4
70 76 3
70 77 5
70 78 1
70 79 5
70 80 4
70 81 3
70 82 1
70 83 4
70 84 1
70 85 2
70 86 5
70 87 4
70 88 3
70 89 3
70 90 2
70 91 2
70 92 5
70 93 2
70 94 1
70 95 1
70 96 2
70 97 2
70 98 3
70 99 5
70 100 4
71 72 3
71 73 1
71 74 3
71 75 2
71 76 5
71 77 1
71 78 4
71 79 5
71 80 1
71 81 3
71 82 2
71 83 1
71 84 1
71 85 1
71 86 2
71 87 1
71 88 1
71 89 1
71 90 2
71 91 3
71 92 4
71 93 1
71 94 3
71 95 3
71 96 2
71 97 2
71 98 5
71 99 3
71 100 4
72 73 4
72 74 1
72 75 2
72 76 4
72 77 5
72 78 4
72 79 5
72 80 5
72 81 2
72 82 5
72 83 1
72 84 5
72 85 4
72 86 2
72 87 3
72 88 4
72 89 2
72 90 1
72 91 5
72 92 5
72 93 4
72 94 3
72 95 3
72 96 4
72 97 4
72 98 2
72 99 5
72 100 5
73 74 4
73 75 4
73 76 2
73 77 4
73 78 4
73 79 4
73 80 1
73 81 2
73 82 3
73 83 2
73 84 2
73 85 3
73 86 1
73 87 1
73 88 2
73 89 2
73 90 5
73 91 4
73 92 1
73 93 2
73 94 4
73 95 5
73 96 3
73 97 1
73 98 4
73 99 3
73 100 2
74 75 4
74 76 3
74 77 4
74 78 1
74 79 2
74 80 5
74 81 5
74 82 4
74 83 4
74 84 2
74 85 3
74 86 1
74 87 5
74 88 3
74 89 2
74 90 5
74 91 4
74 92 1
74 93 3
74 94 4
74 95 1
74 96 3
74 97 4
74 98 5
74 99 5
74 100 3
75 76 3
75 77 1
75 78 4
75 79 3
75 80 2
75 81 1
75 82 3
75 83 4
75 84 5
75 85 3
75 86 1
75 87 4
75 88 4
75 89 1
75 90 2
75 91 3
75 92 2
75 93 2
75 94 2
75 95 4
75 96 5
75 97 5
75 98 3
75 99 2
75 100 1
76 77 4
76 78 4
76 79 5
76 80 3
76 81 3
76 82 4
76 83 1
76 84 4
76 85 1
76 86 5
76 87 1
76 88 3
76 89 2
76 90 2
76 91 4
76 92 1
76 93 5
76 94 1
76 95 2
76 96 1
76 97 4
76 98 5
76 99 1
76 100 2
77 78 3
77 79 3
77 80 5
77 81 3
77 82 4
77 83 3
77 84 5
77 85 1
77 86 4
77 87 3
77 88 2
77 89 5
77 90 2
77 91 2
77 92 5
77 93 2
77 94 3
77 95 5
77 96 2
77 97 2
77 98 2
77 99 4
77 100 1
78 79 2
78 80 1
78 81 3
78 82 3
78 83 1
78 84 3
78 85 2
78 86 3
78 87 5
78 88 1
78 89 4
78 90 2
78 91 4
78 92 2
78 93 4
78 94 4
78 95 5
78 96 5
78 97 5
78 98 1
78 99 3
78 100 4
79 80 2
79 81 5
79 82 4
79 83 1
79 84 3
79 85 3
79 86 1
79 87 1
79 88 1
79 89 1
79 90 4
79 91 5
79 92 5
79 93 4
79 94 5
79 95 3
79 96 5
79 97 2
79 98 2
79 99 3
79 100 1
80 81 4
80 82 2
80 83 2
80 84 3
80 85 5
80 86 5
80 87 1
80 88 2
80 89 5
80 90 1
80 91 4
80 92 4
80 93 3
80 94 1
80 95 4
80 96 3
80 97 1
80 98 3
80 99 3
80 100 1
81 82 2
81 83 4
81 84 1
81 85 1
81 86 1
81 87 4
81 88 1
81 89 1
81 90 1
81 91 2
81 92 3
81 93 4
81 94 1
81 95 5
81 96 4
81 97 1
81 98 3
81 99 3
81 100 3
82 83 2
82 84 2
82 85 5
82 86 1
82 87 5
82 88 2
82 89 1
82 90 2
82 91 1
82 92 2
82 93 3
82 94 4
82 95 4
82 96 5
82 97 1
82 98 3
82 99 4
82 100 2
83 84 3
83 85 1
83 86 5
83 87 3
83 88 1
83 89 3
83 90 2
83 91 5
83 92 4
83 93 3
83 94 4
83 95 5
83 96 4
83 97 5
83 98 3
83 99 1
83 100 2
84 85 1
84 86 4
84 87 1
84 88 5
84 89 5
84 90 5
84 91 4
84 92 1
84 93 5
84 94 1
84 95 2
84 96 3
84 97 3
84 98 5
84 99 5
84 100 1
85 86 5
85 87 5
85 88 3
85 89 4
85 90 5
85 91 5
85 92 5
85 93 3
85 94 4
85 95 1
85 96 4
85 97 1
85 98 4
85 99 4
85 100 3
86 87 4
86 88 5
86 89 2
86 90 5
86 91 5
86 92 5
86 93 5
86 94 3
86 95 1
86 96 5
86 97 2
86 98 3
86 99 2
86 100 5
87 88 5
87 89 5
87 90 1
87 91 1
87 92 3
87 93 4
87 94 2
87 95 5
87 96 5
87 97 2
87 98 2
87 99 5
87 100 2
88 89 1
88 90 2
88 91 5
88 92 2
88 93 1
88 94 1
88 95 5
88 96 5
88 97 3
88 98 4
88 99 2
88 100 1
89 90 2
89 91 4
89 92 2
89 93 1
89 94 1
89 95 4
89 96 3
89 97 2
89 98 4
89 99 4
89 100 3
90 91 5
90 92 4
90 93 1
90 94 2
90 95 5
90 96 5
90 97 4
90 98 4
90 99 1
90 100 4
91 92 4
91 93 1
91 94 4
91 95 5
91 96 1
91 97 2
91 98 5
91 99 1
91 100 3
92 93 3
92 94 1
92 95 5
92 96 3
92 97 3
92 98 5
92 99 4
92 100 2
93 94 5
93 95 1
93 96 5
93 97 2
93 98 1
93 99 2
93 100 4
94 95 5
94 96 4
94 97 3
94 98 1
94 99 2
94 100 2
95 96 5
95 97 2
95 98 1
95 99 5
95 100 2
96 97 4
96 98 3
96 99 2
96 100 2
97 98 4
97 99 4
97 100 5
98 99 2
98 100 5
99 100 1
